<?xml version = "1.0" standalone="yes"?>
<!-- This file has been generated by DOcplex version 2.23.222  -->
<CPLEXSolution version="1.0">
 <header
   problemName="CVRP"
   objectiveValue="17980.2"
  />
 <variables>
  <variable name="x_0_1" index="0" value="1.00000"/>
  <variable name="x_0_2" index="1" value="1.00000"/>
  <variable name="x_0_3" index="2" value="1.00000"/>
  <variable name="x_0_4" index="3" value="1.00000"/>
  <variable name="x_0_7" index="6" value="1.00000"/>
  <variable name="x_0_9" index="8" value="1.00000"/>
  <variable name="x_0_10" index="9" value="1.00000"/>
  <variable name="x_0_12" index="11" value="1.00000"/>
  <variable name="x_0_13" index="12" value="1.00000"/>
  <variable name="x_0_15" index="14" value="1.00000"/>
  <variable name="x_0_17" index="16" value="1.00000"/>
  <variable name="x_0_18" index="17" value="1.00000"/>
  <variable name="x_0_19" index="18" value="1.00000"/>
  <variable name="x_0_20" index="19" value="1.00000"/>
  <variable name="x_0_21" index="20" value="1.00000"/>
  <variable name="x_0_22" index="21" value="1.00000"/>
  <variable name="x_1_5" index="26" value="1.00000"/>
  <variable name="x_2_0" index="44" value="1.00000"/>
  <variable name="x_3_14" index="79" value="1.00000"/>
  <variable name="x_4_0" index="88" value="1.00000"/>
  <variable name="x_5_0" index="110" value="1.00000"/>
  <variable name="x_6_0" index="132" value="1.00000"/>
  <variable name="x_7_16" index="169" value="1.00000"/>
  <variable name="x_8_0" index="176" value="1.00000"/>
  <variable name="x_9_0" index="198" value="1.00000"/>
  <variable name="x_10_0" index="220" value="1.00000"/>
  <variable name="x_11_0" index="242" value="1.00000"/>
  <variable name="x_12_11" index="275" value="1.00000"/>
  <variable name="x_13_6" index="292" value="1.00000"/>
  <variable name="x_14_0" index="308" value="1.00000"/>
  <variable name="x_15_0" index="330" value="1.00000"/>
  <variable name="x_16_0" index="352" value="1.00000"/>
  <variable name="x_17_0" index="374" value="1.00000"/>
  <variable name="x_18_0" index="396" value="1.00000"/>
  <variable name="x_19_0" index="418" value="1.00000"/>
  <variable name="x_20_0" index="440" value="1.00000"/>
  <variable name="x_21_0" index="462" value="1.00000"/>
  <variable name="x_22_8" index="492" value="1.00000"/>
  <variable name="u_1" index="506" value="13.00000"/>
  <variable name="u_2" index="507" value="31.00000"/>
  <variable name="u_3" index="508" value="14.00000"/>
  <variable name="u_4" index="509" value="44.00000"/>
  <variable name="u_5" index="510" value="49.00000"/>
  <variable name="u_6" index="511" value="49.00000"/>
  <variable name="u_7" index="512" value="25.00000"/>
  <variable name="u_8" index="513" value="43.00000"/>
  <variable name="u_9" index="514" value="49.00000"/>
  <variable name="u_10" index="515" value="40.00000"/>
  <variable name="u_11" index="516" value="49.00000"/>
  <variable name="u_12" index="517" value="41.00000"/>
  <variable name="u_13" index="518" value="27.00000"/>
  <variable name="u_14" index="519" value="47.00000"/>
  <variable name="u_15" index="520" value="48.00000"/>
  <variable name="u_16" index="521" value="45.00000"/>
  <variable name="u_17" index="522" value="46.00000"/>
  <variable name="u_18" index="523" value="39.00000"/>
  <variable name="u_19" index="524" value="37.00000"/>
  <variable name="u_20" index="525" value="49.00000"/>
  <variable name="u_21" index="526" value="48.00000"/>
  <variable name="u_22" index="527" value="9.00000"/>
 </variables>
</CPLEXSolution>
